p cnf 498 983               
-51 -50 -57 0
57 -69 0
-50 58 0
-51 58 0
50 51 -58 0
-58 -52 -59 0
59 -69 0
-52 60 0
-58 60 0
52 58 -60 0
-60 -53 -61 0
61 -69 0
-53 62 0
-60 62 0
53 60 -62 0
-62 -54 -63 0
63 -69 0
-54 64 0
-62 64 0
54 62 -64 0
-64 -55 -65 0
65 -69 0
-55 66 0
-64 66 0
55 64 -66 0
-66 -56 -67 0
67 -69 0
56 66 -68 0
68 -69 0
69 -190 0
50 180 0
-43 180 0
-50 43 -180 0
180 -187 0
51 181 0
-44 181 0
-51 44 -181 0
181 -187 0
52 182 0
-45 182 0
-52 45 -182 0
182 -187 0
53 183 0
-46 183 0
-53 46 -183 0
183 -187 0
54 184 0
-47 184 0
-54 47 -184 0
184 -187 0
55 185 0
-48 185 0
-55 48 -185 0
185 -187 0
56 186 0
-49 186 0
-56 49 -186 0
186 -187 0
-180 -181 -182 -183 -184 -185 -186 187 0
7 -84 0
50 -84 0
-7 -50 84 0
-84 133 0
14 -91 0
51 -91 0
-14 -51 91 0
-91 133 0
21 -98 0
52 -98 0
-21 -52 98 0
-98 133 0
28 -105 0
53 -105 0
-28 -53 105 0
-105 133 0
35 -112 0
54 -112 0
-35 -54 112 0
-112 133 0
42 -119 0
55 -119 0
-42 -55 119 0
-119 133 0
49 -126 0
56 -126 0
-49 -56 126 0
-126 133 0
84 91 98 105 112 119 126 -133 0
-187 -133 188 0
187 133 188 0
-133 133 188 0
-188 -189 0
50 171 0
-36 171 0
-50 36 -171 0
171 -178 0
51 172 0
-37 172 0
-51 37 -172 0
172 -178 0
52 173 0
-38 173 0
-52 38 -173 0
173 -178 0
53 174 0
-39 174 0
-53 39 -174 0
174 -178 0
54 175 0
-40 175 0
-54 40 -175 0
175 -178 0
55 176 0
-41 176 0
-55 41 -176 0
176 -178 0
56 177 0
-42 177 0
-56 42 -177 0
177 -178 0
-171 -172 -173 -174 -175 -176 -177 178 0
6 -83 0
50 -83 0
-6 -50 83 0
-83 132 0
13 -90 0
51 -90 0
-13 -51 90 0
-90 132 0
20 -97 0
52 -97 0
-20 -52 97 0
-97 132 0
27 -104 0
53 -104 0
-27 -53 104 0
-104 132 0
34 -111 0
54 -111 0
-34 -54 111 0
-111 132 0
41 -118 0
55 -118 0
-41 -55 118 0
-118 132 0
48 -125 0
56 -125 0
-48 -56 125 0
-125 132 0
83 90 97 104 111 118 125 -132 0
-178 -132 179 0
178 132 179 0
-132 132 179 0
-179 -189 0
50 162 0
-29 162 0
-50 29 -162 0
162 -169 0
51 163 0
-30 163 0
-51 30 -163 0
163 -169 0
52 164 0
-31 164 0
-52 31 -164 0
164 -169 0
53 165 0
-32 165 0
-53 32 -165 0
165 -169 0
54 166 0
-33 166 0
-54 33 -166 0
166 -169 0
55 167 0
-34 167 0
-55 34 -167 0
167 -169 0
56 168 0
-35 168 0
-56 35 -168 0
168 -169 0
-162 -163 -164 -165 -166 -167 -168 169 0
5 -82 0
50 -82 0
-5 -50 82 0
-82 131 0
12 -89 0
51 -89 0
-12 -51 89 0
-89 131 0
19 -96 0
52 -96 0
-19 -52 96 0
-96 131 0
26 -103 0
53 -103 0
-26 -53 103 0
-103 131 0
33 -110 0
54 -110 0
-33 -54 110 0
-110 131 0
40 -117 0
55 -117 0
-40 -55 117 0
-117 131 0
47 -124 0
56 -124 0
-47 -56 124 0
-124 131 0
82 89 96 103 110 117 124 -131 0
-169 -131 170 0
169 131 170 0
-131 131 170 0
-170 -189 0
50 153 0
-22 153 0
-50 22 -153 0
153 -160 0
51 154 0
-23 154 0
-51 23 -154 0
154 -160 0
52 155 0
-24 155 0
-52 24 -155 0
155 -160 0
53 156 0
-25 156 0
-53 25 -156 0
156 -160 0
54 157 0
-26 157 0
-54 26 -157 0
157 -160 0
55 158 0
-27 158 0
-55 27 -158 0
158 -160 0
56 159 0
-28 159 0
-56 28 -159 0
159 -160 0
-153 -154 -155 -156 -157 -158 -159 160 0
4 -81 0
50 -81 0
-4 -50 81 0
-81 130 0
11 -88 0
51 -88 0
-11 -51 88 0
-88 130 0
18 -95 0
52 -95 0
-18 -52 95 0
-95 130 0
25 -102 0
53 -102 0
-25 -53 102 0
-102 130 0
32 -109 0
54 -109 0
-32 -54 109 0
-109 130 0
39 -116 0
55 -116 0
-39 -55 116 0
-116 130 0
46 -123 0
56 -123 0
-46 -56 123 0
-123 130 0
81 88 95 102 109 116 123 -130 0
-160 -130 161 0
160 130 161 0
-130 130 161 0
-161 -189 0
50 144 0
-15 144 0
-50 15 -144 0
144 -151 0
51 145 0
-16 145 0
-51 16 -145 0
145 -151 0
52 146 0
-17 146 0
-52 17 -146 0
146 -151 0
53 147 0
-18 147 0
-53 18 -147 0
147 -151 0
54 148 0
-19 148 0
-54 19 -148 0
148 -151 0
55 149 0
-20 149 0
-55 20 -149 0
149 -151 0
56 150 0
-21 150 0
-56 21 -150 0
150 -151 0
-144 -145 -146 -147 -148 -149 -150 151 0
3 -80 0
50 -80 0
-3 -50 80 0
-80 129 0
10 -87 0
51 -87 0
-10 -51 87 0
-87 129 0
17 -94 0
52 -94 0
-17 -52 94 0
-94 129 0
24 -101 0
53 -101 0
-24 -53 101 0
-101 129 0
31 -108 0
54 -108 0
-31 -54 108 0
-108 129 0
38 -115 0
55 -115 0
-38 -55 115 0
-115 129 0
45 -122 0
56 -122 0
-45 -56 122 0
-122 129 0
80 87 94 101 108 115 122 -129 0
-151 -129 152 0
151 129 152 0
-129 129 152 0
-152 -189 0
50 135 0
-8 135 0
-50 8 -135 0
135 -142 0
51 136 0
-9 136 0
-51 9 -136 0
136 -142 0
52 137 0
-10 137 0
-52 10 -137 0
137 -142 0
53 138 0
-11 138 0
-53 11 -138 0
138 -142 0
54 139 0
-12 139 0
-54 12 -139 0
139 -142 0
55 140 0
-13 140 0
-55 13 -140 0
140 -142 0
56 141 0
-14 141 0
-56 14 -141 0
141 -142 0
-135 -136 -137 -138 -139 -140 -141 142 0
2 -79 0
50 -79 0
-2 -50 79 0
-79 128 0
9 -86 0
51 -86 0
-9 -51 86 0
-86 128 0
16 -93 0
52 -93 0
-16 -52 93 0
-93 128 0
23 -100 0
53 -100 0
-23 -53 100 0
-100 128 0
30 -107 0
54 -107 0
-30 -54 107 0
-107 128 0
37 -114 0
55 -114 0
-37 -55 114 0
-114 128 0
44 -121 0
56 -121 0
-44 -56 121 0
-121 128 0
79 86 93 100 107 114 121 -128 0
-142 -128 143 0
142 128 143 0
-128 128 143 0
-143 -189 0
50 70 0
-1 70 0
-50 1 -70 0
70 -77 0
51 71 0
-2 71 0
-51 2 -71 0
71 -77 0
52 72 0
-3 72 0
-52 3 -72 0
72 -77 0
53 73 0
-4 73 0
-53 4 -73 0
73 -77 0
54 74 0
-5 74 0
-54 5 -74 0
74 -77 0
55 75 0
-6 75 0
-55 6 -75 0
75 -77 0
56 76 0
-7 76 0
-56 7 -76 0
76 -77 0
-70 -71 -72 -73 -74 -75 -76 77 0
1 -78 0
50 -78 0
-1 -50 78 0
-78 127 0
8 -85 0
51 -85 0
-8 -51 85 0
-85 127 0
15 -92 0
52 -92 0
-15 -52 92 0
-92 127 0
22 -99 0
53 -99 0
-22 -53 99 0
-99 127 0
29 -106 0
54 -106 0
-29 -54 106 0
-106 127 0
36 -113 0
55 -113 0
-36 -55 113 0
-113 127 0
43 -120 0
56 -120 0
-43 -56 120 0
-120 127 0
78 85 92 99 106 113 120 -127 0
-77 -127 134 0
77 127 134 0
-127 127 134 0
-134 -189 0
189 -190 0
-50 51 -191 0
191 -241 0
-50 -51 192 0
50 51 192 0
-51 51 192 0
-1 9 -193 0
-192 193 -194 0
194 -241 0
-1 -9 195 0
1 9 195 0
-9 9 195 0
-192 -195 196 0
-2 8 -197 0
-196 197 -198 0
198 -241 0
-2 -8 199 0
2 8 199 0
-8 8 199 0
-196 -199 200 0
-3 10 -201 0
-200 201 -202 0
202 -241 0
-3 -10 203 0
3 10 203 0
-10 10 203 0
-200 -203 204 0
-4 11 -205 0
-204 205 -206 0
206 -241 0
-4 -11 207 0
4 11 207 0
-11 11 207 0
-204 -207 208 0
-5 12 -209 0
-208 209 -210 0
210 -241 0
-5 -12 211 0
5 12 211 0
-12 12 211 0
-208 -211 212 0
-6 13 -213 0
-212 213 -214 0
214 -241 0
-6 -13 215 0
6 13 215 0
-13 13 215 0
-212 -215 216 0
-7 14 -217 0
-216 217 -218 0
218 -241 0
-7 -14 219 0
7 14 219 0
-14 14 219 0
-216 -219 220 0
-15 16 -221 0
-220 221 -222 0
222 -241 0
-15 -16 223 0
15 16 223 0
-16 16 223 0
-220 -223 224 0
-22 23 -225 0
-224 225 -226 0
226 -241 0
-22 -23 227 0
22 23 227 0
-23 23 227 0
-224 -227 228 0
-29 30 -229 0
-228 229 -230 0
230 -241 0
-29 -30 231 0
29 30 231 0
-30 30 231 0
-228 -231 232 0
-36 37 -233 0
-232 233 -234 0
234 -241 0
-36 -37 235 0
36 37 235 0
-37 37 235 0
-232 -235 236 0
-43 44 -237 0
-236 237 -238 0
238 -241 0
241 -497 0
-51 52 -242 0
242 -292 0
-51 -52 243 0
51 52 243 0
-52 52 243 0
-2 3 -244 0
-243 244 -245 0
245 -292 0
-2 -3 246 0
2 3 246 0
-3 3 246 0
-243 -246 247 0
-8 15 -248 0
-247 248 -249 0
249 -292 0
-8 -15 250 0
8 15 250 0
-15 15 250 0
-247 -250 251 0
-9 17 -252 0
-251 252 -253 0
253 -292 0
-9 -17 254 0
9 17 254 0
-17 17 254 0
-251 -254 255 0
-10 16 -256 0
-255 256 -257 0
257 -292 0
-10 -16 258 0
10 16 258 0
-16 16 258 0
-255 -258 259 0
-11 18 -260 0
-259 260 -261 0
261 -292 0
-11 -18 262 0
11 18 262 0
-18 18 262 0
-259 -262 263 0
-12 19 -264 0
-263 264 -265 0
265 -292 0
-12 -19 266 0
12 19 266 0
-19 19 266 0
-263 -266 267 0
-13 20 -268 0
-267 268 -269 0
269 -292 0
-13 -20 270 0
13 20 270 0
-20 20 270 0
-267 -270 271 0
-14 21 -272 0
-271 272 -273 0
273 -292 0
-14 -21 274 0
14 21 274 0
-21 21 274 0
-271 -274 275 0
-23 24 -276 0
-275 276 -277 0
277 -292 0
-23 -24 278 0
23 24 278 0
-24 24 278 0
-275 -278 279 0
-30 31 -280 0
-279 280 -281 0
281 -292 0
-30 -31 282 0
30 31 282 0
-31 31 282 0
-279 -282 283 0
-37 38 -284 0
-283 284 -285 0
285 -292 0
-37 -38 286 0
37 38 286 0
-38 38 286 0
-283 -286 287 0
-44 45 -288 0
-287 288 -289 0
289 -292 0
292 -497 0
-52 53 -293 0
293 -343 0
-52 -53 294 0
52 53 294 0
-53 53 294 0
-3 4 -295 0
-294 295 -296 0
296 -343 0
-3 -4 297 0
3 4 297 0
-4 4 297 0
-294 -297 298 0
-10 11 -299 0
-298 299 -300 0
300 -343 0
-10 -11 301 0
10 11 301 0
-11 11 301 0
-298 -301 302 0
-15 22 -303 0
-302 303 -304 0
304 -343 0
-15 -22 305 0
15 22 305 0
-22 22 305 0
-302 -305 306 0
-16 23 -307 0
-306 307 -308 0
308 -343 0
-16 -23 309 0
16 23 309 0
-23 23 309 0
-306 -309 310 0
-17 25 -311 0
-310 311 -312 0
312 -343 0
-17 -25 313 0
17 25 313 0
-25 25 313 0
-310 -313 314 0
-18 24 -315 0
-314 315 -316 0
316 -343 0
-18 -24 317 0
18 24 317 0
-24 24 317 0
-314 -317 318 0
-19 26 -319 0
-318 319 -320 0
320 -343 0
-19 -26 321 0
19 26 321 0
-26 26 321 0
-318 -321 322 0
-20 27 -323 0
-322 323 -324 0
324 -343 0
-20 -27 325 0
20 27 325 0
-27 27 325 0
-322 -325 326 0
-21 28 -327 0
-326 327 -328 0
328 -343 0
-21 -28 329 0
21 28 329 0
-28 28 329 0
-326 -329 330 0
-31 32 -331 0
-330 331 -332 0
332 -343 0
-31 -32 333 0
31 32 333 0
-32 32 333 0
-330 -333 334 0
-38 39 -335 0
-334 335 -336 0
336 -343 0
-38 -39 337 0
38 39 337 0
-39 39 337 0
-334 -337 338 0
-45 46 -339 0
-338 339 -340 0
340 -343 0
343 -497 0
-53 54 -344 0
344 -394 0
-53 -54 345 0
53 54 345 0
-54 54 345 0
-4 5 -346 0
-345 346 -347 0
347 -394 0
-4 -5 348 0
4 5 348 0
-5 5 348 0
-345 -348 349 0
-11 12 -350 0
-349 350 -351 0
351 -394 0
-11 -12 352 0
11 12 352 0
-12 12 352 0
-349 -352 353 0
-18 19 -354 0
-353 354 -355 0
355 -394 0
-18 -19 356 0
18 19 356 0
-19 19 356 0
-353 -356 357 0
-22 29 -358 0
-357 358 -359 0
359 -394 0
-22 -29 360 0
22 29 360 0
-29 29 360 0
-357 -360 361 0
-23 30 -362 0
-361 362 -363 0
363 -394 0
-23 -30 364 0
23 30 364 0
-30 30 364 0
-361 -364 365 0
-24 31 -366 0
-365 366 -367 0
367 -394 0
-24 -31 368 0
24 31 368 0
-31 31 368 0
-365 -368 369 0
-25 33 -370 0
-369 370 -371 0
371 -394 0
-25 -33 372 0
25 33 372 0
-33 33 372 0
-369 -372 373 0
-26 32 -374 0
-373 374 -375 0
375 -394 0
-26 -32 376 0
26 32 376 0
-32 32 376 0
-373 -376 377 0
-27 34 -378 0
-377 378 -379 0
379 -394 0
-27 -34 380 0
27 34 380 0
-34 34 380 0
-377 -380 381 0
-28 35 -382 0
-381 382 -383 0
383 -394 0
-28 -35 384 0
28 35 384 0
-35 35 384 0
-381 -384 385 0
-39 40 -386 0
-385 386 -387 0
387 -394 0
-39 -40 388 0
39 40 388 0
-40 40 388 0
-385 -388 389 0
-46 47 -390 0
-389 390 -391 0
391 -394 0
394 -497 0
-54 55 -395 0
395 -445 0
-54 -55 396 0
54 55 396 0
-55 55 396 0
-5 6 -397 0
-396 397 -398 0
398 -445 0
-5 -6 399 0
5 6 399 0
-6 6 399 0
-396 -399 400 0
-12 13 -401 0
-400 401 -402 0
402 -445 0
-12 -13 403 0
12 13 403 0
-13 13 403 0
-400 -403 404 0
-19 20 -405 0
-404 405 -406 0
406 -445 0
-19 -20 407 0
19 20 407 0
-20 20 407 0
-404 -407 408 0
-26 27 -409 0
-408 409 -410 0
410 -445 0
-26 -27 411 0
26 27 411 0
-27 27 411 0
-408 -411 412 0
-29 36 -413 0
-412 413 -414 0
414 -445 0
-29 -36 415 0
29 36 415 0
-36 36 415 0
-412 -415 416 0
-30 37 -417 0
-416 417 -418 0
418 -445 0
-30 -37 419 0
30 37 419 0
-37 37 419 0
-416 -419 420 0
-31 38 -421 0
-420 421 -422 0
422 -445 0
-31 -38 423 0
31 38 423 0
-38 38 423 0
-420 -423 424 0
-32 39 -425 0
-424 425 -426 0
426 -445 0
-32 -39 427 0
32 39 427 0
-39 39 427 0
-424 -427 428 0
-33 41 -429 0
-428 429 -430 0
430 -445 0
-33 -41 431 0
33 41 431 0
-41 41 431 0
-428 -431 432 0
-34 40 -433 0
-432 433 -434 0
434 -445 0
-34 -40 435 0
34 40 435 0
-40 40 435 0
-432 -435 436 0
-35 42 -437 0
-436 437 -438 0
438 -445 0
-35 -42 439 0
35 42 439 0
-42 42 439 0
-436 -439 440 0
-47 48 -441 0
-440 441 -442 0
442 -445 0
445 -497 0
-55 56 -446 0
446 -496 0
-55 -56 447 0
55 56 447 0
-56 56 447 0
-6 7 -448 0
-447 448 -449 0
449 -496 0
-6 -7 450 0
6 7 450 0
-7 7 450 0
-447 -450 451 0
-13 14 -452 0
-451 452 -453 0
453 -496 0
-13 -14 454 0
13 14 454 0
-14 14 454 0
-451 -454 455 0
-20 21 -456 0
-455 456 -457 0
457 -496 0
-20 -21 458 0
20 21 458 0
-21 21 458 0
-455 -458 459 0
-27 28 -460 0
-459 460 -461 0
461 -496 0
-27 -28 462 0
27 28 462 0
-28 28 462 0
-459 -462 463 0
-34 35 -464 0
-463 464 -465 0
465 -496 0
-34 -35 466 0
34 35 466 0
-35 35 466 0
-463 -466 467 0
-36 43 -468 0
-467 468 -469 0
469 -496 0
-36 -43 470 0
36 43 470 0
-43 43 470 0
-467 -470 471 0
-37 44 -472 0
-471 472 -473 0
473 -496 0
-37 -44 474 0
37 44 474 0
-44 44 474 0
-471 -474 475 0
-38 45 -476 0
-475 476 -477 0
477 -496 0
-38 -45 478 0
38 45 478 0
-45 45 478 0
-475 -478 479 0
-39 46 -480 0
-479 480 -481 0
481 -496 0
-39 -46 482 0
39 46 482 0
-46 46 482 0
-479 -482 483 0
-40 47 -484 0
-483 484 -485 0
485 -496 0
-40 -47 486 0
40 47 486 0
-47 47 486 0
-483 -486 487 0
-41 49 -488 0
-487 488 -489 0
489 -496 0
-41 -49 490 0
41 49 490 0
-49 49 490 0
-487 -490 491 0
-42 48 -492 0
-491 492 -493 0
493 -496 0
496 -497 0
190 0
497 0
